p cnf 560 1456
w 1 1
w 2 0.880797
w 3 0.880797
w 4 1
w 5 0.880797
w 6 0.880797
w 7 1
w 8 0.880797
w 9 0.880797
w 10 1
w 11 0.880797
w 12 0.880797
w 13 1
w 14 0.880797
w 15 0.880797
w 16 1
w 17 0.880797
w 18 0.880797
w 19 1
w 20 0.880797
w 21 0.880797
w 22 1
w 23 0.880797
w 24 0.880797
w 25 1
w 26 0.880797
w 27 0.880797
w 28 1
w 29 0.880797
w 30 0.880797
w 31 1
w 32 0.880797
w 33 0.880797
w 34 1
w 35 0.880797
w 36 0.880797
w 37 1
w 38 0.880797
w 39 0.880797
w 40 1
w 41 0.880797
w 42 1
w 43 0.880797
w 44 0.880797
w 45 1
w 46 0.880797
w 47 0.880797
w 48 1
w 49 0.880797
w 50 0.880797
w 51 1
w 52 0.880797
w 53 0.880797
w 54 1
w 55 0.880797
w 56 0.880797
w 57 1
w 58 0.880797
w 59 0.880797
w 60 1
w 61 0.880797
w 62 0.880797
w 63 1
w 64 0.880797
w 65 0.880797
w 66 1
w 67 0.880797
w 68 0.880797
w 69 1
w 70 0.880797
w 71 0.880797
w 72 1
w 73 0.880797
w 74 0.880797
w 75 1
w 76 0.880797
w 77 0.880797
w 78 1
w 79 0.880797
w 80 0.880797
w 81 1
w 82 0.880797
w 83 1
w 84 0.880797
w 85 0.880797
w 86 1
w 87 0.880797
w 88 0.880797
w 89 1
w 90 0.880797
w 91 0.880797
w 92 1
w 93 0.880797
w 94 0.880797
w 95 1
w 96 0.880797
w 97 0.880797
w 98 1
w 99 0.880797
w 100 0.880797
w 101 1
w 102 0.880797
w 103 0.880797
w 104 1
w 105 0.880797
w 106 0.880797
w 107 1
w 108 0.880797
w 109 0.880797
w 110 1
w 111 0.880797
w 112 0.880797
w 113 1
w 114 0.880797
w 115 0.880797
w 116 1
w 117 0.880797
w 118 0.880797
w 119 1
w 120 0.880797
w 121 0.880797
w 122 1
w 123 0.880797
w 124 1
w 125 0.880797
w 126 0.880797
w 127 1
w 128 0.880797
w 129 0.880797
w 130 1
w 131 0.880797
w 132 0.880797
w 133 1
w 134 0.880797
w 135 0.880797
w 136 1
w 137 0.880797
w 138 0.880797
w 139 1
w 140 0.880797
w 141 0.880797
w 142 1
w 143 0.880797
w 144 0.880797
w 145 1
w 146 0.880797
w 147 0.880797
w 148 1
w 149 0.880797
w 150 0.880797
w 151 1
w 152 0.880797
w 153 0.880797
w 154 1
w 155 0.880797
w 156 0.880797
w 157 1
w 158 0.880797
w 159 0.880797
w 160 1
w 161 0.880797
w 162 0.880797
w 163 1
w 164 0.880797
w 165 1
w 166 0.880797
w 167 0.880797
w 168 1
w 169 0.880797
w 170 0.880797
w 171 1
w 172 0.880797
w 173 0.880797
w 174 1
w 175 0.880797
w 176 0.880797
w 177 1
w 178 0.880797
w 179 0.880797
w 180 1
w 181 0.880797
w 182 0.880797
w 183 1
w 184 0.880797
w 185 0.880797
w 186 1
w 187 0.880797
w 188 0.880797
w 189 1
w 190 0.880797
w 191 0.880797
w 192 1
w 193 0.880797
w 194 0.880797
w 195 1
w 196 0.880797
w 197 0.880797
w 198 1
w 199 0.880797
w 200 0.880797
w 201 1
w 202 0.880797
w 203 0.880797
w 204 1
w 205 0.880797
w 206 1
w 207 0.880797
w 208 0.880797
w 209 1
w 210 0.880797
w 211 0.880797
w 212 1
w 213 0.880797
w 214 0.880797
w 215 1
w 216 0.880797
w 217 0.880797
w 218 1
w 219 0.880797
w 220 0.880797
w 221 1
w 222 0.880797
w 223 0.880797
w 224 1
w 225 0.880797
w 226 0.880797
w 227 1
w 228 0.880797
w 229 0.880797
w 230 1
w 231 0.880797
w 232 0.880797
w 233 1
w 234 0.880797
w 235 0.880797
w 236 1
w 237 0.880797
w 238 0.880797
w 239 1
w 240 0.880797
w 241 0.880797
w 242 1
w 243 0.880797
w 244 0.880797
w 245 1
w 246 0.880797
w 247 1
w 248 0.880797
w 249 0.880797
w 250 1
w 251 0.880797
w 252 0.880797
w 253 1
w 254 0.880797
w 255 0.880797
w 256 1
w 257 0.880797
w 258 0.880797
w 259 1
w 260 0.880797
w 261 0.880797
w 262 1
w 263 0.880797
w 264 0.880797
w 265 1
w 266 0.880797
w 267 0.880797
w 268 1
w 269 0.880797
w 270 0.880797
w 271 1
w 272 0.880797
w 273 0.880797
w 274 1
w 275 0.880797
w 276 0.880797
w 277 1
w 278 0.880797
w 279 0.880797
w 280 1
w 281 0.880797
w 282 0.880797
w 283 1
w 284 0.880797
w 285 0.880797
w 286 1
w 287 0.880797
w 288 1
w 289 0.880797
w 290 0.880797
w 291 1
w 292 0.880797
w 293 0.880797
w 294 1
w 295 0.880797
w 296 0.880797
w 297 1
w 298 0.880797
w 299 0.880797
w 300 1
w 301 0.880797
w 302 0.880797
w 303 1
w 304 0.880797
w 305 0.880797
w 306 1
w 307 0.880797
w 308 0.880797
w 309 1
w 310 0.880797
w 311 0.880797
w 312 1
w 313 0.880797
w 314 0.880797
w 315 1
w 316 0.880797
w 317 0.880797
w 318 1
w 319 0.880797
w 320 0.880797
w 321 1
w 322 0.880797
w 323 0.880797
w 324 1
w 325 0.880797
w 326 0.880797
w 327 1
w 328 0.880797
w 329 1
w 330 0.880797
w 331 0.880797
w 332 1
w 333 0.880797
w 334 0.880797
w 335 1
w 336 0.880797
w 337 0.880797
w 338 1
w 339 0.880797
w 340 0.880797
w 341 1
w 342 0.880797
w 343 0.880797
w 344 1
w 345 0.880797
w 346 0.880797
w 347 1
w 348 0.880797
w 349 0.880797
w 350 1
w 351 0.880797
w 352 0.880797
w 353 1
w 354 0.880797
w 355 0.880797
w 356 1
w 357 0.880797
w 358 0.880797
w 359 1
w 360 0.880797
w 361 0.880797
w 362 1
w 363 0.880797
w 364 0.880797
w 365 1
w 366 0.880797
w 367 0.880797
w 368 1
w 369 0.880797
w 370 1
w 371 0.880797
w 372 0.880797
w 373 1
w 374 0.880797
w 375 0.880797
w 376 1
w 377 0.880797
w 378 0.880797
w 379 1
w 380 0.880797
w 381 0.880797
w 382 1
w 383 0.880797
w 384 0.880797
w 385 1
w 386 0.880797
w 387 0.880797
w 388 1
w 389 0.880797
w 390 0.880797
w 391 1
w 392 0.880797
w 393 0.880797
w 394 1
w 395 0.880797
w 396 0.880797
w 397 1
w 398 0.880797
w 399 0.880797
w 400 1
w 401 0.880797
w 402 0.880797
w 403 1
w 404 0.880797
w 405 0.880797
w 406 1
w 407 0.880797
w 408 0.880797
w 409 1
w 410 0.880797
w 411 1
w 412 0.880797
w 413 0.880797
w 414 1
w 415 0.880797
w 416 0.880797
w 417 1
w 418 0.880797
w 419 0.880797
w 420 1
w 421 0.880797
w 422 0.880797
w 423 1
w 424 0.880797
w 425 0.880797
w 426 1
w 427 0.880797
w 428 0.880797
w 429 1
w 430 0.880797
w 431 0.880797
w 432 1
w 433 0.880797
w 434 0.880797
w 435 1
w 436 0.880797
w 437 0.880797
w 438 1
w 439 0.880797
w 440 0.880797
w 441 1
w 442 0.880797
w 443 0.880797
w 444 1
w 445 0.880797
w 446 0.880797
w 447 1
w 448 0.880797
w 449 0.880797
w 450 1
w 451 0.880797
w 452 1
w 453 0.880797
w 454 0.880797
w 455 1
w 456 0.880797
w 457 0.880797
w 458 1
w 459 0.880797
w 460 0.880797
w 461 1
w 462 0.880797
w 463 0.880797
w 464 1
w 465 0.880797
w 466 0.880797
w 467 1
w 468 0.880797
w 469 0.880797
w 470 1
w 471 0.880797
w 472 0.880797
w 473 1
w 474 0.880797
w 475 0.880797
w 476 1
w 477 0.880797
w 478 0.880797
w 479 1
w 480 0.880797
w 481 0.880797
w 482 1
w 483 0.880797
w 484 0.880797
w 485 1
w 486 0.880797
w 487 0.880797
w 488 1
w 489 0.880797
w 490 0.880797
w 491 1
w 492 0.880797
w 493 1
w 494 0.880797
w 495 0.880797
w 496 1
w 497 0.880797
w 498 0.880797
w 499 1
w 500 0.880797
w 501 0.880797
w 502 1
w 503 0.880797
w 504 0.880797
w 505 1
w 506 0.880797
w 507 0.880797
w 508 1
w 509 0.880797
w 510 0.880797
w 511 1
w 512 0.880797
w 513 0.880797
w 514 1
w 515 0.880797
w 516 0.880797
w 517 1
w 518 0.880797
w 519 0.880797
w 520 1
w 521 0.880797
w 522 0.880797
w 523 1
w 524 0.880797
w 525 0.880797
w 526 1
w 527 0.880797
w 528 0.880797
w 529 1
w 530 0.880797
w 531 0.880797
w 532 1
w 533 0.880797
w 534 1
w 535 0.880797
w 536 1
w 537 0.880797
w 538 1
w 539 0.880797
w 540 1
w 541 0.880797
w 542 1
w 543 0.880797
w 544 1
w 545 0.880797
w 546 1
w 547 0.880797
w 548 1
w 549 0.880797
w 550 1
w 551 0.880797
w 552 1
w 553 0.880797
w 554 1
w 555 0.880797
w 556 1
w 557 0.880797
w 558 1
w 559 0.880797
w 560 1
2 1 4 0
2 -1 -4 0
-2 1 -4 0
-2 -1 4 0
3 1 42 0
3 -1 -42 0
-3 1 -42 0
-3 -1 42 0
5 4 7 0
5 -4 -7 0
-5 4 -7 0
-5 -4 7 0
6 4 45 0
6 -4 -45 0
-6 4 -45 0
-6 -4 45 0
8 7 10 0
8 -7 -10 0
-8 7 -10 0
-8 -7 10 0
9 7 48 0
9 -7 -48 0
-9 7 -48 0
-9 -7 48 0
11 10 13 0
11 -10 -13 0
-11 10 -13 0
-11 -10 13 0
12 10 51 0
12 -10 -51 0
-12 10 -51 0
-12 -10 51 0
14 13 16 0
14 -13 -16 0
-14 13 -16 0
-14 -13 16 0
15 13 54 0
15 -13 -54 0
-15 13 -54 0
-15 -13 54 0
17 16 19 0
17 -16 -19 0
-17 16 -19 0
-17 -16 19 0
18 16 57 0
18 -16 -57 0
-18 16 -57 0
-18 -16 57 0
20 19 22 0
20 -19 -22 0
-20 19 -22 0
-20 -19 22 0
21 19 60 0
21 -19 -60 0
-21 19 -60 0
-21 -19 60 0
23 22 25 0
23 -22 -25 0
-23 22 -25 0
-23 -22 25 0
24 22 63 0
24 -22 -63 0
-24 22 -63 0
-24 -22 63 0
26 25 28 0
26 -25 -28 0
-26 25 -28 0
-26 -25 28 0
27 25 66 0
27 -25 -66 0
-27 25 -66 0
-27 -25 66 0
29 28 31 0
29 -28 -31 0
-29 28 -31 0
-29 -28 31 0
30 28 69 0
30 -28 -69 0
-30 28 -69 0
-30 -28 69 0
32 31 34 0
32 -31 -34 0
-32 31 -34 0
-32 -31 34 0
33 31 72 0
33 -31 -72 0
-33 31 -72 0
-33 -31 72 0
35 34 37 0
35 -34 -37 0
-35 34 -37 0
-35 -34 37 0
36 34 75 0
36 -34 -75 0
-36 34 -75 0
-36 -34 75 0
38 37 40 0
38 -37 -40 0
-38 37 -40 0
-38 -37 40 0
39 37 78 0
39 -37 -78 0
-39 37 -78 0
-39 -37 78 0
41 40 81 0
41 -40 -81 0
-41 40 -81 0
-41 -40 81 0
43 42 45 0
43 -42 -45 0
-43 42 -45 0
-43 -42 45 0
44 42 83 0
44 -42 -83 0
-44 42 -83 0
-44 -42 83 0
46 45 48 0
46 -45 -48 0
-46 45 -48 0
-46 -45 48 0
47 45 86 0
47 -45 -86 0
-47 45 -86 0
-47 -45 86 0
49 48 51 0
49 -48 -51 0
-49 48 -51 0
-49 -48 51 0
50 48 89 0
50 -48 -89 0
-50 48 -89 0
-50 -48 89 0
52 51 54 0
52 -51 -54 0
-52 51 -54 0
-52 -51 54 0
53 51 92 0
53 -51 -92 0
-53 51 -92 0
-53 -51 92 0
55 54 57 0
55 -54 -57 0
-55 54 -57 0
-55 -54 57 0
56 54 95 0
56 -54 -95 0
-56 54 -95 0
-56 -54 95 0
58 57 60 0
58 -57 -60 0
-58 57 -60 0
-58 -57 60 0
59 57 98 0
59 -57 -98 0
-59 57 -98 0
-59 -57 98 0
61 60 63 0
61 -60 -63 0
-61 60 -63 0
-61 -60 63 0
62 60 101 0
62 -60 -101 0
-62 60 -101 0
-62 -60 101 0
64 63 66 0
64 -63 -66 0
-64 63 -66 0
-64 -63 66 0
65 63 104 0
65 -63 -104 0
-65 63 -104 0
-65 -63 104 0
67 66 69 0
67 -66 -69 0
-67 66 -69 0
-67 -66 69 0
68 66 107 0
68 -66 -107 0
-68 66 -107 0
-68 -66 107 0
70 69 72 0
70 -69 -72 0
-70 69 -72 0
-70 -69 72 0
71 69 110 0
71 -69 -110 0
-71 69 -110 0
-71 -69 110 0
73 72 75 0
73 -72 -75 0
-73 72 -75 0
-73 -72 75 0
74 72 113 0
74 -72 -113 0
-74 72 -113 0
-74 -72 113 0
76 75 78 0
76 -75 -78 0
-76 75 -78 0
-76 -75 78 0
77 75 116 0
77 -75 -116 0
-77 75 -116 0
-77 -75 116 0
79 78 81 0
79 -78 -81 0
-79 78 -81 0
-79 -78 81 0
80 78 119 0
80 -78 -119 0
-80 78 -119 0
-80 -78 119 0
82 81 122 0
82 -81 -122 0
-82 81 -122 0
-82 -81 122 0
84 83 86 0
84 -83 -86 0
-84 83 -86 0
-84 -83 86 0
85 83 124 0
85 -83 -124 0
-85 83 -124 0
-85 -83 124 0
87 86 89 0
87 -86 -89 0
-87 86 -89 0
-87 -86 89 0
88 86 127 0
88 -86 -127 0
-88 86 -127 0
-88 -86 127 0
90 89 92 0
90 -89 -92 0
-90 89 -92 0
-90 -89 92 0
91 89 130 0
91 -89 -130 0
-91 89 -130 0
-91 -89 130 0
93 92 95 0
93 -92 -95 0
-93 92 -95 0
-93 -92 95 0
94 92 133 0
94 -92 -133 0
-94 92 -133 0
-94 -92 133 0
96 95 98 0
96 -95 -98 0
-96 95 -98 0
-96 -95 98 0
97 95 136 0
97 -95 -136 0
-97 95 -136 0
-97 -95 136 0
99 98 101 0
99 -98 -101 0
-99 98 -101 0
-99 -98 101 0
100 98 139 0
100 -98 -139 0
-100 98 -139 0
-100 -98 139 0
102 101 104 0
102 -101 -104 0
-102 101 -104 0
-102 -101 104 0
103 101 142 0
103 -101 -142 0
-103 101 -142 0
-103 -101 142 0
105 104 107 0
105 -104 -107 0
-105 104 -107 0
-105 -104 107 0
106 104 145 0
106 -104 -145 0
-106 104 -145 0
-106 -104 145 0
108 107 110 0
108 -107 -110 0
-108 107 -110 0
-108 -107 110 0
109 107 148 0
109 -107 -148 0
-109 107 -148 0
-109 -107 148 0
111 110 113 0
111 -110 -113 0
-111 110 -113 0
-111 -110 113 0
112 110 151 0
112 -110 -151 0
-112 110 -151 0
-112 -110 151 0
114 113 116 0
114 -113 -116 0
-114 113 -116 0
-114 -113 116 0
115 113 154 0
115 -113 -154 0
-115 113 -154 0
-115 -113 154 0
117 116 119 0
117 -116 -119 0
-117 116 -119 0
-117 -116 119 0
118 116 157 0
118 -116 -157 0
-118 116 -157 0
-118 -116 157 0
120 119 122 0
120 -119 -122 0
-120 119 -122 0
-120 -119 122 0
121 119 160 0
121 -119 -160 0
-121 119 -160 0
-121 -119 160 0
123 122 163 0
123 -122 -163 0
-123 122 -163 0
-123 -122 163 0
125 124 127 0
125 -124 -127 0
-125 124 -127 0
-125 -124 127 0
126 124 165 0
126 -124 -165 0
-126 124 -165 0
-126 -124 165 0
128 127 130 0
128 -127 -130 0
-128 127 -130 0
-128 -127 130 0
129 127 168 0
129 -127 -168 0
-129 127 -168 0
-129 -127 168 0
131 130 133 0
131 -130 -133 0
-131 130 -133 0
-131 -130 133 0
132 130 171 0
132 -130 -171 0
-132 130 -171 0
-132 -130 171 0
134 133 136 0
134 -133 -136 0
-134 133 -136 0
-134 -133 136 0
135 133 174 0
135 -133 -174 0
-135 133 -174 0
-135 -133 174 0
137 136 139 0
137 -136 -139 0
-137 136 -139 0
-137 -136 139 0
138 136 177 0
138 -136 -177 0
-138 136 -177 0
-138 -136 177 0
140 139 142 0
140 -139 -142 0
-140 139 -142 0
-140 -139 142 0
141 139 180 0
141 -139 -180 0
-141 139 -180 0
-141 -139 180 0
143 142 145 0
143 -142 -145 0
-143 142 -145 0
-143 -142 145 0
144 142 183 0
144 -142 -183 0
-144 142 -183 0
-144 -142 183 0
146 145 148 0
146 -145 -148 0
-146 145 -148 0
-146 -145 148 0
147 145 186 0
147 -145 -186 0
-147 145 -186 0
-147 -145 186 0
149 148 151 0
149 -148 -151 0
-149 148 -151 0
-149 -148 151 0
150 148 189 0
150 -148 -189 0
-150 148 -189 0
-150 -148 189 0
152 151 154 0
152 -151 -154 0
-152 151 -154 0
-152 -151 154 0
153 151 192 0
153 -151 -192 0
-153 151 -192 0
-153 -151 192 0
155 154 157 0
155 -154 -157 0
-155 154 -157 0
-155 -154 157 0
156 154 195 0
156 -154 -195 0
-156 154 -195 0
-156 -154 195 0
158 157 160 0
158 -157 -160 0
-158 157 -160 0
-158 -157 160 0
159 157 198 0
159 -157 -198 0
-159 157 -198 0
-159 -157 198 0
161 160 163 0
161 -160 -163 0
-161 160 -163 0
-161 -160 163 0
162 160 201 0
162 -160 -201 0
-162 160 -201 0
-162 -160 201 0
164 163 204 0
164 -163 -204 0
-164 163 -204 0
-164 -163 204 0
166 165 168 0
166 -165 -168 0
-166 165 -168 0
-166 -165 168 0
167 165 206 0
167 -165 -206 0
-167 165 -206 0
-167 -165 206 0
169 168 171 0
169 -168 -171 0
-169 168 -171 0
-169 -168 171 0
170 168 209 0
170 -168 -209 0
-170 168 -209 0
-170 -168 209 0
172 171 174 0
172 -171 -174 0
-172 171 -174 0
-172 -171 174 0
173 171 212 0
173 -171 -212 0
-173 171 -212 0
-173 -171 212 0
175 174 177 0
175 -174 -177 0
-175 174 -177 0
-175 -174 177 0
176 174 215 0
176 -174 -215 0
-176 174 -215 0
-176 -174 215 0
178 177 180 0
178 -177 -180 0
-178 177 -180 0
-178 -177 180 0
179 177 218 0
179 -177 -218 0
-179 177 -218 0
-179 -177 218 0
181 180 183 0
181 -180 -183 0
-181 180 -183 0
-181 -180 183 0
182 180 221 0
182 -180 -221 0
-182 180 -221 0
-182 -180 221 0
184 183 186 0
184 -183 -186 0
-184 183 -186 0
-184 -183 186 0
185 183 224 0
185 -183 -224 0
-185 183 -224 0
-185 -183 224 0
187 186 189 0
187 -186 -189 0
-187 186 -189 0
-187 -186 189 0
188 186 227 0
188 -186 -227 0
-188 186 -227 0
-188 -186 227 0
190 189 192 0
190 -189 -192 0
-190 189 -192 0
-190 -189 192 0
191 189 230 0
191 -189 -230 0
-191 189 -230 0
-191 -189 230 0
193 192 195 0
193 -192 -195 0
-193 192 -195 0
-193 -192 195 0
194 192 233 0
194 -192 -233 0
-194 192 -233 0
-194 -192 233 0
196 195 198 0
196 -195 -198 0
-196 195 -198 0
-196 -195 198 0
197 195 236 0
197 -195 -236 0
-197 195 -236 0
-197 -195 236 0
199 198 201 0
199 -198 -201 0
-199 198 -201 0
-199 -198 201 0
200 198 239 0
200 -198 -239 0
-200 198 -239 0
-200 -198 239 0
202 201 204 0
202 -201 -204 0
-202 201 -204 0
-202 -201 204 0
203 201 242 0
203 -201 -242 0
-203 201 -242 0
-203 -201 242 0
205 204 245 0
205 -204 -245 0
-205 204 -245 0
-205 -204 245 0
207 206 209 0
207 -206 -209 0
-207 206 -209 0
-207 -206 209 0
208 206 247 0
208 -206 -247 0
-208 206 -247 0
-208 -206 247 0
210 209 212 0
210 -209 -212 0
-210 209 -212 0
-210 -209 212 0
211 209 250 0
211 -209 -250 0
-211 209 -250 0
-211 -209 250 0
213 212 215 0
213 -212 -215 0
-213 212 -215 0
-213 -212 215 0
214 212 253 0
214 -212 -253 0
-214 212 -253 0
-214 -212 253 0
216 215 218 0
216 -215 -218 0
-216 215 -218 0
-216 -215 218 0
217 215 256 0
217 -215 -256 0
-217 215 -256 0
-217 -215 256 0
219 218 221 0
219 -218 -221 0
-219 218 -221 0
-219 -218 221 0
220 218 259 0
220 -218 -259 0
-220 218 -259 0
-220 -218 259 0
222 221 224 0
222 -221 -224 0
-222 221 -224 0
-222 -221 224 0
223 221 262 0
223 -221 -262 0
-223 221 -262 0
-223 -221 262 0
225 224 227 0
225 -224 -227 0
-225 224 -227 0
-225 -224 227 0
226 224 265 0
226 -224 -265 0
-226 224 -265 0
-226 -224 265 0
228 227 230 0
228 -227 -230 0
-228 227 -230 0
-228 -227 230 0
229 227 268 0
229 -227 -268 0
-229 227 -268 0
-229 -227 268 0
231 230 233 0
231 -230 -233 0
-231 230 -233 0
-231 -230 233 0
232 230 271 0
232 -230 -271 0
-232 230 -271 0
-232 -230 271 0
234 233 236 0
234 -233 -236 0
-234 233 -236 0
-234 -233 236 0
235 233 274 0
235 -233 -274 0
-235 233 -274 0
-235 -233 274 0
237 236 239 0
237 -236 -239 0
-237 236 -239 0
-237 -236 239 0
238 236 277 0
238 -236 -277 0
-238 236 -277 0
-238 -236 277 0
240 239 242 0
240 -239 -242 0
-240 239 -242 0
-240 -239 242 0
241 239 280 0
241 -239 -280 0
-241 239 -280 0
-241 -239 280 0
243 242 245 0
243 -242 -245 0
-243 242 -245 0
-243 -242 245 0
244 242 283 0
244 -242 -283 0
-244 242 -283 0
-244 -242 283 0
246 245 286 0
246 -245 -286 0
-246 245 -286 0
-246 -245 286 0
248 247 250 0
248 -247 -250 0
-248 247 -250 0
-248 -247 250 0
249 247 288 0
249 -247 -288 0
-249 247 -288 0
-249 -247 288 0
251 250 253 0
251 -250 -253 0
-251 250 -253 0
-251 -250 253 0
252 250 291 0
252 -250 -291 0
-252 250 -291 0
-252 -250 291 0
254 253 256 0
254 -253 -256 0
-254 253 -256 0
-254 -253 256 0
255 253 294 0
255 -253 -294 0
-255 253 -294 0
-255 -253 294 0
257 256 259 0
257 -256 -259 0
-257 256 -259 0
-257 -256 259 0
258 256 297 0
258 -256 -297 0
-258 256 -297 0
-258 -256 297 0
260 259 262 0
260 -259 -262 0
-260 259 -262 0
-260 -259 262 0
261 259 300 0
261 -259 -300 0
-261 259 -300 0
-261 -259 300 0
263 262 265 0
263 -262 -265 0
-263 262 -265 0
-263 -262 265 0
264 262 303 0
264 -262 -303 0
-264 262 -303 0
-264 -262 303 0
266 265 268 0
266 -265 -268 0
-266 265 -268 0
-266 -265 268 0
267 265 306 0
267 -265 -306 0
-267 265 -306 0
-267 -265 306 0
269 268 271 0
269 -268 -271 0
-269 268 -271 0
-269 -268 271 0
270 268 309 0
270 -268 -309 0
-270 268 -309 0
-270 -268 309 0
272 271 274 0
272 -271 -274 0
-272 271 -274 0
-272 -271 274 0
273 271 312 0
273 -271 -312 0
-273 271 -312 0
-273 -271 312 0
275 274 277 0
275 -274 -277 0
-275 274 -277 0
-275 -274 277 0
276 274 315 0
276 -274 -315 0
-276 274 -315 0
-276 -274 315 0
278 277 280 0
278 -277 -280 0
-278 277 -280 0
-278 -277 280 0
279 277 318 0
279 -277 -318 0
-279 277 -318 0
-279 -277 318 0
281 280 283 0
281 -280 -283 0
-281 280 -283 0
-281 -280 283 0
282 280 321 0
282 -280 -321 0
-282 280 -321 0
-282 -280 321 0
284 283 286 0
284 -283 -286 0
-284 283 -286 0
-284 -283 286 0
285 283 324 0
285 -283 -324 0
-285 283 -324 0
-285 -283 324 0
287 286 327 0
287 -286 -327 0
-287 286 -327 0
-287 -286 327 0
289 288 291 0
289 -288 -291 0
-289 288 -291 0
-289 -288 291 0
290 288 329 0
290 -288 -329 0
-290 288 -329 0
-290 -288 329 0
292 291 294 0
292 -291 -294 0
-292 291 -294 0
-292 -291 294 0
293 291 332 0
293 -291 -332 0
-293 291 -332 0
-293 -291 332 0
295 294 297 0
295 -294 -297 0
-295 294 -297 0
-295 -294 297 0
296 294 335 0
296 -294 -335 0
-296 294 -335 0
-296 -294 335 0
298 297 300 0
298 -297 -300 0
-298 297 -300 0
-298 -297 300 0
299 297 338 0
299 -297 -338 0
-299 297 -338 0
-299 -297 338 0
301 300 303 0
301 -300 -303 0
-301 300 -303 0
-301 -300 303 0
302 300 341 0
302 -300 -341 0
-302 300 -341 0
-302 -300 341 0
304 303 306 0
304 -303 -306 0
-304 303 -306 0
-304 -303 306 0
305 303 344 0
305 -303 -344 0
-305 303 -344 0
-305 -303 344 0
307 306 309 0
307 -306 -309 0
-307 306 -309 0
-307 -306 309 0
308 306 347 0
308 -306 -347 0
-308 306 -347 0
-308 -306 347 0
310 309 312 0
310 -309 -312 0
-310 309 -312 0
-310 -309 312 0
311 309 350 0
311 -309 -350 0
-311 309 -350 0
-311 -309 350 0
313 312 315 0
313 -312 -315 0
-313 312 -315 0
-313 -312 315 0
314 312 353 0
314 -312 -353 0
-314 312 -353 0
-314 -312 353 0
316 315 318 0
316 -315 -318 0
-316 315 -318 0
-316 -315 318 0
317 315 356 0
317 -315 -356 0
-317 315 -356 0
-317 -315 356 0
319 318 321 0
319 -318 -321 0
-319 318 -321 0
-319 -318 321 0
320 318 359 0
320 -318 -359 0
-320 318 -359 0
-320 -318 359 0
322 321 324 0
322 -321 -324 0
-322 321 -324 0
-322 -321 324 0
323 321 362 0
323 -321 -362 0
-323 321 -362 0
-323 -321 362 0
325 324 327 0
325 -324 -327 0
-325 324 -327 0
-325 -324 327 0
326 324 365 0
326 -324 -365 0
-326 324 -365 0
-326 -324 365 0
328 327 368 0
328 -327 -368 0
-328 327 -368 0
-328 -327 368 0
330 329 332 0
330 -329 -332 0
-330 329 -332 0
-330 -329 332 0
331 329 370 0
331 -329 -370 0
-331 329 -370 0
-331 -329 370 0
333 332 335 0
333 -332 -335 0
-333 332 -335 0
-333 -332 335 0
334 332 373 0
334 -332 -373 0
-334 332 -373 0
-334 -332 373 0
336 335 338 0
336 -335 -338 0
-336 335 -338 0
-336 -335 338 0
337 335 376 0
337 -335 -376 0
-337 335 -376 0
-337 -335 376 0
339 338 341 0
339 -338 -341 0
-339 338 -341 0
-339 -338 341 0
340 338 379 0
340 -338 -379 0
-340 338 -379 0
-340 -338 379 0
342 341 344 0
342 -341 -344 0
-342 341 -344 0
-342 -341 344 0
343 341 382 0
343 -341 -382 0
-343 341 -382 0
-343 -341 382 0
345 344 347 0
345 -344 -347 0
-345 344 -347 0
-345 -344 347 0
346 344 385 0
346 -344 -385 0
-346 344 -385 0
-346 -344 385 0
348 347 350 0
348 -347 -350 0
-348 347 -350 0
-348 -347 350 0
349 347 388 0
349 -347 -388 0
-349 347 -388 0
-349 -347 388 0
351 350 353 0
351 -350 -353 0
-351 350 -353 0
-351 -350 353 0
352 350 391 0
352 -350 -391 0
-352 350 -391 0
-352 -350 391 0
354 353 356 0
354 -353 -356 0
-354 353 -356 0
-354 -353 356 0
355 353 394 0
355 -353 -394 0
-355 353 -394 0
-355 -353 394 0
357 356 359 0
357 -356 -359 0
-357 356 -359 0
-357 -356 359 0
358 356 397 0
358 -356 -397 0
-358 356 -397 0
-358 -356 397 0
360 359 362 0
360 -359 -362 0
-360 359 -362 0
-360 -359 362 0
361 359 400 0
361 -359 -400 0
-361 359 -400 0
-361 -359 400 0
363 362 365 0
363 -362 -365 0
-363 362 -365 0
-363 -362 365 0
364 362 403 0
364 -362 -403 0
-364 362 -403 0
-364 -362 403 0
366 365 368 0
366 -365 -368 0
-366 365 -368 0
-366 -365 368 0
367 365 406 0
367 -365 -406 0
-367 365 -406 0
-367 -365 406 0
369 368 409 0
369 -368 -409 0
-369 368 -409 0
-369 -368 409 0
371 370 373 0
371 -370 -373 0
-371 370 -373 0
-371 -370 373 0
372 370 411 0
372 -370 -411 0
-372 370 -411 0
-372 -370 411 0
374 373 376 0
374 -373 -376 0
-374 373 -376 0
-374 -373 376 0
375 373 414 0
375 -373 -414 0
-375 373 -414 0
-375 -373 414 0
377 376 379 0
377 -376 -379 0
-377 376 -379 0
-377 -376 379 0
378 376 417 0
378 -376 -417 0
-378 376 -417 0
-378 -376 417 0
380 379 382 0
380 -379 -382 0
-380 379 -382 0
-380 -379 382 0
381 379 420 0
381 -379 -420 0
-381 379 -420 0
-381 -379 420 0
383 382 385 0
383 -382 -385 0
-383 382 -385 0
-383 -382 385 0
384 382 423 0
384 -382 -423 0
-384 382 -423 0
-384 -382 423 0
386 385 388 0
386 -385 -388 0
-386 385 -388 0
-386 -385 388 0
387 385 426 0
387 -385 -426 0
-387 385 -426 0
-387 -385 426 0
389 388 391 0
389 -388 -391 0
-389 388 -391 0
-389 -388 391 0
390 388 429 0
390 -388 -429 0
-390 388 -429 0
-390 -388 429 0
392 391 394 0
392 -391 -394 0
-392 391 -394 0
-392 -391 394 0
393 391 432 0
393 -391 -432 0
-393 391 -432 0
-393 -391 432 0
395 394 397 0
395 -394 -397 0
-395 394 -397 0
-395 -394 397 0
396 394 435 0
396 -394 -435 0
-396 394 -435 0
-396 -394 435 0
398 397 400 0
398 -397 -400 0
-398 397 -400 0
-398 -397 400 0
399 397 438 0
399 -397 -438 0
-399 397 -438 0
-399 -397 438 0
401 400 403 0
401 -400 -403 0
-401 400 -403 0
-401 -400 403 0
402 400 441 0
402 -400 -441 0
-402 400 -441 0
-402 -400 441 0
404 403 406 0
404 -403 -406 0
-404 403 -406 0
-404 -403 406 0
405 403 444 0
405 -403 -444 0
-405 403 -444 0
-405 -403 444 0
407 406 409 0
407 -406 -409 0
-407 406 -409 0
-407 -406 409 0
408 406 447 0
408 -406 -447 0
-408 406 -447 0
-408 -406 447 0
410 409 450 0
410 -409 -450 0
-410 409 -450 0
-410 -409 450 0
412 411 414 0
412 -411 -414 0
-412 411 -414 0
-412 -411 414 0
413 411 452 0
413 -411 -452 0
-413 411 -452 0
-413 -411 452 0
415 414 417 0
415 -414 -417 0
-415 414 -417 0
-415 -414 417 0
416 414 455 0
416 -414 -455 0
-416 414 -455 0
-416 -414 455 0
418 417 420 0
418 -417 -420 0
-418 417 -420 0
-418 -417 420 0
419 417 458 0
419 -417 -458 0
-419 417 -458 0
-419 -417 458 0
421 420 423 0
421 -420 -423 0
-421 420 -423 0
-421 -420 423 0
422 420 461 0
422 -420 -461 0
-422 420 -461 0
-422 -420 461 0
424 423 426 0
424 -423 -426 0
-424 423 -426 0
-424 -423 426 0
425 423 464 0
425 -423 -464 0
-425 423 -464 0
-425 -423 464 0
427 426 429 0
427 -426 -429 0
-427 426 -429 0
-427 -426 429 0
428 426 467 0
428 -426 -467 0
-428 426 -467 0
-428 -426 467 0
430 429 432 0
430 -429 -432 0
-430 429 -432 0
-430 -429 432 0
431 429 470 0
431 -429 -470 0
-431 429 -470 0
-431 -429 470 0
433 432 435 0
433 -432 -435 0
-433 432 -435 0
-433 -432 435 0
434 432 473 0
434 -432 -473 0
-434 432 -473 0
-434 -432 473 0
436 435 438 0
436 -435 -438 0
-436 435 -438 0
-436 -435 438 0
437 435 476 0
437 -435 -476 0
-437 435 -476 0
-437 -435 476 0
439 438 441 0
439 -438 -441 0
-439 438 -441 0
-439 -438 441 0
440 438 479 0
440 -438 -479 0
-440 438 -479 0
-440 -438 479 0
442 441 444 0
442 -441 -444 0
-442 441 -444 0
-442 -441 444 0
443 441 482 0
443 -441 -482 0
-443 441 -482 0
-443 -441 482 0
445 444 447 0
445 -444 -447 0
-445 444 -447 0
-445 -444 447 0
446 444 485 0
446 -444 -485 0
-446 444 -485 0
-446 -444 485 0
448 447 450 0
448 -447 -450 0
-448 447 -450 0
-448 -447 450 0
449 447 488 0
449 -447 -488 0
-449 447 -488 0
-449 -447 488 0
451 450 491 0
451 -450 -491 0
-451 450 -491 0
-451 -450 491 0
453 452 455 0
453 -452 -455 0
-453 452 -455 0
-453 -452 455 0
454 452 493 0
454 -452 -493 0
-454 452 -493 0
-454 -452 493 0
456 455 458 0
456 -455 -458 0
-456 455 -458 0
-456 -455 458 0
457 455 496 0
457 -455 -496 0
-457 455 -496 0
-457 -455 496 0
459 458 461 0
459 -458 -461 0
-459 458 -461 0
-459 -458 461 0
460 458 499 0
460 -458 -499 0
-460 458 -499 0
-460 -458 499 0
462 461 464 0
462 -461 -464 0
-462 461 -464 0
-462 -461 464 0
463 461 502 0
463 -461 -502 0
-463 461 -502 0
-463 -461 502 0
465 464 467 0
465 -464 -467 0
-465 464 -467 0
-465 -464 467 0
466 464 505 0
466 -464 -505 0
-466 464 -505 0
-466 -464 505 0
468 467 470 0
468 -467 -470 0
-468 467 -470 0
-468 -467 470 0
469 467 508 0
469 -467 -508 0
-469 467 -508 0
-469 -467 508 0
471 470 473 0
471 -470 -473 0
-471 470 -473 0
-471 -470 473 0
472 470 511 0
472 -470 -511 0
-472 470 -511 0
-472 -470 511 0
474 473 476 0
474 -473 -476 0
-474 473 -476 0
-474 -473 476 0
475 473 514 0
475 -473 -514 0
-475 473 -514 0
-475 -473 514 0
477 476 479 0
477 -476 -479 0
-477 476 -479 0
-477 -476 479 0
478 476 517 0
478 -476 -517 0
-478 476 -517 0
-478 -476 517 0
480 479 482 0
480 -479 -482 0
-480 479 -482 0
-480 -479 482 0
481 479 520 0
481 -479 -520 0
-481 479 -520 0
-481 -479 520 0
483 482 485 0
483 -482 -485 0
-483 482 -485 0
-483 -482 485 0
484 482 523 0
484 -482 -523 0
-484 482 -523 0
-484 -482 523 0
486 485 488 0
486 -485 -488 0
-486 485 -488 0
-486 -485 488 0
487 485 526 0
487 -485 -526 0
-487 485 -526 0
-487 -485 526 0
489 488 491 0
489 -488 -491 0
-489 488 -491 0
-489 -488 491 0
490 488 529 0
490 -488 -529 0
-490 488 -529 0
-490 -488 529 0
492 491 532 0
492 -491 -532 0
-492 491 -532 0
-492 -491 532 0
494 493 496 0
494 -493 -496 0
-494 493 -496 0
-494 -493 496 0
495 493 534 0
495 -493 -534 0
-495 493 -534 0
-495 -493 534 0
497 496 499 0
497 -496 -499 0
-497 496 -499 0
-497 -496 499 0
498 496 536 0
498 -496 -536 0
-498 496 -536 0
-498 -496 536 0
500 499 502 0
500 -499 -502 0
-500 499 -502 0
-500 -499 502 0
501 499 538 0
501 -499 -538 0
-501 499 -538 0
-501 -499 538 0
503 502 505 0
503 -502 -505 0
-503 502 -505 0
-503 -502 505 0
504 502 540 0
504 -502 -540 0
-504 502 -540 0
-504 -502 540 0
506 505 508 0
506 -505 -508 0
-506 505 -508 0
-506 -505 508 0
507 505 542 0
507 -505 -542 0
-507 505 -542 0
-507 -505 542 0
509 508 511 0
509 -508 -511 0
-509 508 -511 0
-509 -508 511 0
510 508 544 0
510 -508 -544 0
-510 508 -544 0
-510 -508 544 0
512 511 514 0
512 -511 -514 0
-512 511 -514 0
-512 -511 514 0
513 511 546 0
513 -511 -546 0
-513 511 -546 0
-513 -511 546 0
515 514 517 0
515 -514 -517 0
-515 514 -517 0
-515 -514 517 0
516 514 548 0
516 -514 -548 0
-516 514 -548 0
-516 -514 548 0
518 517 520 0
518 -517 -520 0
-518 517 -520 0
-518 -517 520 0
519 517 550 0
519 -517 -550 0
-519 517 -550 0
-519 -517 550 0
521 520 523 0
521 -520 -523 0
-521 520 -523 0
-521 -520 523 0
522 520 552 0
522 -520 -552 0
-522 520 -552 0
-522 -520 552 0
524 523 526 0
524 -523 -526 0
-524 523 -526 0
-524 -523 526 0
525 523 554 0
525 -523 -554 0
-525 523 -554 0
-525 -523 554 0
527 526 529 0
527 -526 -529 0
-527 526 -529 0
-527 -526 529 0
528 526 556 0
528 -526 -556 0
-528 526 -556 0
-528 -526 556 0
530 529 532 0
530 -529 -532 0
-530 529 -532 0
-530 -529 532 0
531 529 558 0
531 -529 -558 0
-531 529 -558 0
-531 -529 558 0
533 532 560 0
533 -532 -560 0
-533 532 -560 0
-533 -532 560 0
535 534 536 0
535 -534 -536 0
-535 534 -536 0
-535 -534 536 0
537 536 538 0
537 -536 -538 0
-537 536 -538 0
-537 -536 538 0
539 538 540 0
539 -538 -540 0
-539 538 -540 0
-539 -538 540 0
541 540 542 0
541 -540 -542 0
-541 540 -542 0
-541 -540 542 0
543 542 544 0
543 -542 -544 0
-543 542 -544 0
-543 -542 544 0
545 544 546 0
545 -544 -546 0
-545 544 -546 0
-545 -544 546 0
547 546 548 0
547 -546 -548 0
-547 546 -548 0
-547 -546 548 0
549 548 550 0
549 -548 -550 0
-549 548 -550 0
-549 -548 550 0
551 550 552 0
551 -550 -552 0
-551 550 -552 0
-551 -550 552 0
553 552 554 0
553 -552 -554 0
-553 552 -554 0
-553 -552 554 0
555 554 556 0
555 -554 -556 0
-555 554 -556 0
-555 -554 556 0
557 556 558 0
557 -556 -558 0
-557 556 -558 0
-557 -556 558 0
559 558 560 0
559 -558 -560 0
-559 558 -560 0
-559 -558 560 0
